<number of tasks>
50

<cycle time>
1000

<order strength>
0.598


<task times>
1 153
2 177
3 155
4 92
5 189
6 156
7 118
8 307
9 111
10 85
11 69
12 90
13 327
14 35
15 90
16 57
17 51
18 108
19 144
20 89
21 77
22 38
23 57
24 131
25 197
26 139
27 164
28 29
29 92
30 99
31 134
32 216
33 95
34 119
35 43
36 144
37 295
38 291
39 29
40 152
41 144
42 153
43 187
44 65
45 294
46 221
47 160
48 63
49 62
50 137

<precedence relations>
1,7
2,7
3,7
4,7
5,9
5,10
5,17
6,7
6,8
7,11
7,12
7,13
7,14
7,15
8,32
9,41
10,15
10,16
11,21
11,31
12,22
12,27
13,16
13,17
14,16
14,17
14,18
15,18
15,20
16,41
17,19
17,20
17,22
17,29
18,19
18,21
18,24
19,32
20,23
20,24
20,25
20,27
20,28
20,32
21,22
21,23
21,26
22,32
23,41
25,30
25,31
26,29
26,30
28,30
28,42
29,32
30,33
30,34
31,33
31,42
32,35
32,36
32,37
32,38
32,39
32,40
32,42
33,41
35,50
39,50
40,49
41,43
41,44
41,45
41,46
41,47
41,48
43,50
46,49
46,50

<end>
